29
1 0 2
3 0 5
3 1 4
4 0 7
4 1 7
4 2 4
5 0 3
5 4 8
6 0 2
6 3 1
6 5 6
7 1 3
7 5 6
8 3 5
8 5 4
8 6 3
9 0 2
9 2 5
9 3 2
9 4 3
9 5 1
9 7 6
9 8 5
10 0 7
10 2 5
10 4 7
10 9 1
11 2 4
11 5 7
11 7 5
11 9 3
12 1 8
12 2 7
12 3 6
12 4 4
12 5 4
12 6 1
12 7 6
12 8 6
12 9 1
12 10 3
13 0 7
13 1 2
13 5 8
13 7 3
13 8 6
13 12 5
14 4 2
14 6 6
14 10 2
14 11 1
14 12 3
14 13 5
15 0 7
15 4 3
15 5 3
15 7 4
15 8 1
15 9 6
15 12 4
15 13 5
15 14 7
16 2 1
16 10 3
16 11 4
16 12 3
16 13 7
17 0 6
17 2 2
17 3 3
17 6 5
17 7 5
17 9 2
17 11 2
17 12 6
17 13 1
18 0 2
18 1 5
18 2 2
18 4 6
18 5 7
18 7 8
18 8 3
18 9 2
18 12 6
18 14 8
18 15 8
19 0 6
19 1 6
19 3 6
19 4 7
19 5 1
19 9 8
20 0 3
20 1 4
20 4 6
20 6 6
20 7 7
20 8 6
20 10 2
20 11 1
20 17 1
21 0 5
21 1 3
21 2 3
21 4 1
21 6 2
21 8 6
21 9 1
21 10 7
21 13 5
21 16 1
21 17 7
21 18 4
21 20 6
22 1 4
22 3 7
22 4 2
22 5 7
22 6 8
22 10 1
22 13 4
22 19 6
22 20 2
22 21 6
23 0 5
23 1 7
23 2 5
23 4 4
23 9 5
23 11 4
23 12 3
23 14 1
23 20 7
23 21 3
24 0 4
24 2 6
24 3 7
24 5 6
24 6 2
24 7 1
24 13 7
24 14 4
24 16 2
24 19 4
24 20 3
24 22 6
25 0 5
25 2 8
25 3 4
25 5 6
25 6 1
25 9 5
25 11 8
25 12 7
25 15 1
25 16 2
25 24 4
26 0 6
26 2 8
26 5 5
26 7 1
26 10 8
26 11 7
26 12 8
26 13 3
26 14 8
26 16 6
26 17 7
26 19 8
26 20 1
26 21 4
26 22 7
27 0 3
27 1 8
27 3 1
27 4 1
27 7 8
27 9 4
27 10 1
27 11 8
27 14 5
27 15 6
27 17 1
27 18 5
27 19 6
27 21 7
27 22 7
27 23 6
28 0 3
28 1 3
28 2 1
28 6 7
28 8 5
28 9 8
28 15 3
28 17 6
28 18 7
28 19 6
28 22 7
28 23 8
28 24 5
28 25 5
